50 50
   1   -1   -1   -1   -1   -1   -1   -1   -1   -1   -1    2   -1   -1   -1   -1   14   -1   -1   35   -1   -1   26   -1   -1   -1   -1   -1    9   -1   -1    5   -1   -1   -1   -1   -1   27   25   -1   -1   22   -1   10   -1   -1   -1   -1    7   -1 
   0    1   16   -1   46   -1   39   -1   -1   -1   -1   -1   -1   -1   -1   -1   -1   -1   -1    4   -1   -1   38   37   -1   -1   46   27   -1   -1   -1   -1   -1   37   -1   23   -1   -1   -1   -1   24   -1   -1   -1   -1   -1   -1   32   -1   -1 
   0    0    1   -1   -1   -1   -1   38   -1   12   -1   -1   -1   -1   -1   27   -1   -1   16   -1   -1   -1   -1   -1   -1   -1   -1   20   -1   -1   -1   -1   -1   -1   -1   -1   -1   -1   29   -1   -1   -1   -1   -1   14   -1   -1   11   20   -1 
   0    0    0    1   -1   -1   -1   -1   -1   15   -1   -1   -1   -1   -1   -1   -1   28   -1   -1   -1   -1   48   -1   -1   -1   -1   14   -1   -1   -1   -1   13   -1   -1   -1   -1   -1   -1   -1   -1   -1   -1   -1   -1   36   -1   -1   -1   -1 
   0    0    0    0    1   -1   20   -1   -1   -1   29   -1   -1   -1   -1    7   -1   -1   -1   -1   -1   -1   -1   -1   43   -1   -1   -1    9   -1   -1   -1   39   -1   -1   -1   -1   -1   -1   -1   -1    8   -1   -1   -1   -1   -1   -1   -1   -1 
   0    0    0    0    0    1   16   -1   -1   49   -1   48   39   -1   -1   -1   -1   -1   -1   -1   -1   -1   20   -1   44   -1   -1   -1   46   44   34   38   -1   -1   -1   -1   -1   -1   -1   -1   -1   -1   -1   -1   -1   -1   -1   -1   10   -1 
   0    0    0    0    0    0    1   -1   -1   -1   19   29   -1   -1   -1   -1   -1   -1   17   -1   -1   -1   -1   -1   -1   -1   -1   -1   -1   -1   -1   -1   25   -1   -1   -1   -1   -1   -1   -1   -1    5   -1    3   21   -1   -1   32   -1   -1 
   0    0    0    0    0    0    0    1   -1   -1   -1   -1   -1   33   -1   -1   20   -1   -1   -1   -1   -1   -1    3   -1   -1   -1   -1   24   -1   -1   -1   -1   40   -1   -1   -1   -1   -1   -1   -1   -1   -1   -1   -1   -1   -1   -1   34   -1 
   0    0    0    0    0    0    0    0    1   -1    9   -1   -1   -1   -1   -1   -1   -1   -1   -1   -1   -1   -1   -1   -1   -1   -1   -1   -1   -1   -1   -1   -1   -1   -1   -1   -1   -1   11   -1   -1   -1   -1   -1   -1   -1   -1   -1   -1   -1 
   0    0    0    0    0    0    0    0    0    1   -1   -1   -1   45   -1   -1   -1   23   -1   -1   -1   33   -1   -1   -1   -1   -1   -1   -1   22   -1   27   46   -1   -1   -1   -1   -1   -1   15   -1   35   -1   -1   -1   37   11   -1   -1   -1 
   0    0    0    0    0    0    0    0    0    0    0   18   -1   -1   -1   -1   -1   -1   38   12   -1   31    5   14   -1   -1   -1   -1   -1   -1    3   -1   -1   -1    1   -1    0   -1   -1   -1   39   -1   -1   -1   14   -1   -1   -1   31   -1 
   0    0    0    0    0    0    0    0    0    0    0    0   -1   -1   -1   -1   -1   -1   -1   -1   -1   -1   -1   -1   -1   21   -1   -1   -1   -1   -1   -1   -1   -1   34   -1   -1   -1   -1   -1   -1   -1   -1   -1   -1   -1   36   -1   -1   37 
   0    0    0    0    0    0    0    0    0    0    0    0    0   -1   48   -1   -1   -1   -1   -1   35   -1   -1   -1   -1   -1   -1   -1   -1   -1   -1    9   -1   -1   -1   -1   -1   -1   -1   -1   -1   -1   -1   -1   13   -1   -1   -1   -1   33 
   0    0    0    0    0    0    0    0    0    0    0    0    0    0   -1   -1   31   -1   -1   -1   23   -1   -1   -1   -1    7   -1   -1   26   -1   -1   -1   -1   30   -1   -1   46   26   -1   25   -1   -1    2   -1   -1   37   -1   -1   -1   -1 
   0    0    0    0    0    0    0    0    0    0    0    0    0    0    0   17   -1   -1   -1   23   -1   17   -1   -1   -1   28   -1   -1   -1   -1   -1   -1    3   -1   13   -1   -1   -1   -1    9   -1   -1   -1   -1   41   -1    8   -1   41   -1 
   0    0    0    0    0    0    0    0    0    0    0    0    0    0    0    0   -1   -1   -1   31   -1   -1   -1   -1   -1   -1   -1   -1   22   -1   -1   -1   38   -1    4    0   -1   -1   -1   13   -1   -1   -1   -1   -1    5   26   -1   -1   -1 
   0    0    0    0    0    0    0    0    0    0    0    0    0    0    0    0    0   -1   -1   -1   -1   -1   29   -1   -1   -1   -1   -1   -1   -1   -1   -1   -1   -1   41   -1   -1   -1   -1   -1   30   -1   -1   49   19   -1   -1   11   -1   -1 
   0    0    0    0    0    0    0    0    0    0    0    0    0    0    0    0    0    0   -1   -1   -1   29   -1   14   -1   -1   -1   -1   -1   -1   -1   -1   -1   -1   -1   -1   -1   -1    1   -1   22   18   30   -1    9   -1   -1   -1   -1    7 
   0    0    0    0    0    0    0    0    0    0    0    0    0    0    0    0    0    0    0   -1   -1   -1   -1   -1   -1   -1   -1   -1   -1   -1   -1   29   -1   -1   -1   49   42   -1   -1   -1   -1   -1   -1   -1   -1   -1   19   -1   -1   -1 
   0    0    0    0    0    0    0    0    0    0    0    0    0    0    0    0    0    0    0    0   -1   -1   -1   -1   41   -1   -1   -1   -1   -1   42   -1   -1   -1   -1   -1   -1   -1   -1   -1   -1   -1   -1   -1   43   -1   -1   -1   -1   -1 
   0    0    0    0    0    0    0    0    0    0    0    0    0    0    0    0    0    0    0    0    0   -1   12   -1   -1   -1   -1   46   -1   -1   40   -1   -1   -1   -1   -1   -1   -1   -1   -1   -1   -1   -1   -1   42   49   36   -1   -1   -1 
   0    0    0    0    0    0    0    0    0    0    0    0    0    0    0    0    0    0    0    0    0    0   -1   -1   -1   -1   -1   -1   -1    7   -1   -1   -1   -1   -1   -1   -1   -1   -1   -1   -1   -1   -1   -1   -1   -1   -1   -1   -1   -1 
   0    0    0    0    0    0    0    0    0    0    0    0    0    0    0    0    0    0    0    0    0    0    0   -1   -1   -1   -1   -1   -1   -1   -1   -1   38   -1   -1   -1   -1   -1   -1   -1   -1   -1   -1   -1   34   -1   -1   44   -1   -1 
   0    0    0    0    0    0    0    0    0    0    0    0    0    0    0    0    0    0    0    0    0    0    0    0   -1   -1   -1   -1   -1   -1   -1   -1   -1   -1   31   -1   -1   -1   -1   -1   -1   -1   -1   11   -1   42   -1   -1   -1   -1 
   0    0    0    0    0    0    0    0    0    0    0    0    0    0    0    0    0    0    0    0    0    0    0    0    0   -1   -1   -1   -1   -1   -1   -1   -1   -1   -1   -1   -1   -1   -1   -1    0   -1   -1   -1   -1   -1   -1   -1   -1   -1 
   0    0    0    0    0    0    0    0    0    0    0    0    0    0    0    0    0    0    0    0    0    0    0    0    0    0   -1   -1   -1   -1   -1    3   -1   -1   -1   -1   -1   10   -1   -1   -1   -1   -1   -1   -1   13   -1   -1   -1   -1 
   0    0    0    0    0    0    0    0    0    0    0    0    0    0    0    0    0    0    0    0    0    0    0    0    0    0    0   -1   29   -1   45   -1   -1   -1   -1   -1   20   -1   -1   -1   15   -1   -1   -1    8   -1   -1   -1   -1   -1 
   0    0    0    0    0    0    0    0    0    0    0    0    0    0    0    0    0    0    0    0    0    0    0    0    0    0    0    0   -1   -1   -1   26   -1   -1   -1   -1   -1   47   -1   -1   37   -1   -1   -1   -1   -1   -1   -1   26   -1 
   0    0    0    0    0    0    0    0    0    0    0    0    0    0    0    0    0    0    0    0    0    0    0    0    0    0    0    0    0   -1   -1   -1   -1   -1   -1    3   -1   -1   -1   -1   -1   -1   -1   -1   -1   -1   -1   -1   -1   -1 
   0    0    0    0    0    0    0    0    0    0    0    0    0    0    0    0    0    0    0    0    0    0    0    0    0    0    0    0    0    0   -1   -1   -1   -1   -1   28   -1   -1   -1   -1   -1   -1   -1   -1   -1   -1   30   -1   -1   22 
   0    0    0    0    0    0    0    0    0    0    0    0    0    0    0    0    0    0    0    0    0    0    0    0    0    0    0    0    0    0    0   48   -1   -1   -1    1   -1   -1   -1   23   -1   -1   -1   -1   -1   -1   -1   -1   -1   -1 
   0    0    0    0    0    0    0    0    0    0    0    0    0    0    0    0    0    0    0    0    0    0    0    0    0    0    0    0    0    0    0    0   -1   -1   -1   -1   -1   11   -1   -1   -1   -1   -1   -1   -1   -1   -1   -1   -1   -1 
   0    0    0    0    0    0    0    0    0    0    0    0    0    0    0    0    0    0    0    0    0    0    0    0    0    0    0    0    0    0    0    0    0   18   17   27   -1   -1   -1   -1   42   -1   -1   47   -1   24   -1   -1   36   -1 
   0    0    0    0    0    0    0    0    0    0    0    0    0    0    0    0    0    0    0    0    0    0    0    0    0    0    0    0    0    0    0    0    0    0   -1   -1   -1   -1   -1   -1   -1   -1   -1   -1   37   -1   -1   -1   -1   -1 
   0    0    0    0    0    0    0    0    0    0    0    0    0    0    0    0    0    0    0    0    0    0    0    0    0    0    0    0    0    0    0    0    0    0    0   -1   -1   -1   -1   -1   17   -1   -1   -1   -1   10   -1   -1   22   -1 
   0    0    0    0    0    0    0    0    0    0    0    0    0    0    0    0    0    0    0    0    0    0    0    0    0    0    0    0    0    0    0    0    0    0    0    0   -1   -1   -1   -1   -1    9   46   -1   20   36   -1   -1   21   -1 
   0    0    0    0    0    0    0    0    0    0    0    0    0    0    0    0    0    0    0    0    0    0    0    0    0    0    0    0    0    0    0    0    0    0    0    0    0   -1   -1   -1   36   49   -1   -1    6   -1   -1   -1   -1   -1 
   0    0    0    0    0    0    0    0    0    0    0    0    0    0    0    0    0    0    0    0    0    0    0    0    0    0    0    0    0    0    0    0    0    0    0    0    0    0   -1    3   -1   -1   -1   -1   -1   -1   -1   45   -1   -1 
   0    0    0    0    0    0    0    0    0    0    0    0    0    0    0    0    0    0    0    0    0    0    0    0    0    0    0    0    0    0    0    0    0    0    0    0    0    0    0   47   -1   -1   -1   -1   -1   -1   -1   -1   -1   37 
   0    0    0    0    0    0    0    0    0    0    0    0    0    0    0    0    0    0    0    0    0    0    0    0    0    0    0    0    0    0    0    0    0    0    0    0    0    0    0    0   -1   45    6   -1   -1   25   -1   -1   -1   -1 
   0    0    0    0    0    0    0    0    0    0    0    0    0    0    0    0    0    0    0    0    0    0    0    0    0    0    0    0    0    0    0    0    0    0    0    0    0    0    0    0    0   -1   -1   -1    7   -1   36   -1   -1   28 
   0    0    0    0    0    0    0    0    0    0    0    0    0    0    0    0    0    0    0    0    0    0    0    0    0    0    0    0    0    0    0    0    0    0    0    0    0    0    0    0    0    0   -1   -1   23   -1    8   36   -1   -1 
   0    0    0    0    0    0    0    0    0    0    0    0    0    0    0    0    0    0    0    0    0    0    0    0    0    0    0    0    0    0    0    0    0    0    0    0    0    0    0    0    0    0    0   -1   -1   -1   -1   -1   -1   -1 
   0    0    0    0    0    0    0    0    0    0    0    0    0    0    0    0    0    0    0    0    0    0    0    0    0    0    0    0    0    0    0    0    0    0    0    0    0    0    0    0    0    0    0    0   -1   -1   -1   -1   -1   -1 
   0    0    0    0    0    0    0    0    0    0    0    0    0    0    0    0    0    0    0    0    0    0    0    0    0    0    0    0    0    0    0    0    0    0    0    0    0    0    0    0    0    0    0    0    0    7   -1   -1   -1   -1 
   0    0    0    0    0    0    0    0    0    0    0    0    0    0    0    0    0    0    0    0    0    0    0    0    0    0    0    0    0    0    0    0    0    0    0    0    0    0    0    0    0    0    0    0    0    0   -1   15   -1   46 
   0    0    0    0    0    0    0    0    0    0    0    0    0    0    0    0    0    0    0    0    0    0    0    0    0    0    0    0    0    0    0    0    0    0    0    0    0    0    0    0    0    0    0    0    0    0    0   39   -1   -1 
   0    0    0    0    0    0    0    0    0    0    0    0    0    0    0    0    0    0    0    0    0    0    0    0    0    0    0    0    0    0    0    0    0    0    0    0    0    0    0    0    0    0    0    0    0    0    0    0   -1   15 
   0    0    0    0    0    0    0    0    0    0    0    0    0    0    0    0    0    0    0    0    0    0    0    0    0    0    0    0    0    0    0    0    0    0    0    0    0    0    0    0    0    0    0    0    0    0    0    0    0   -1 
   0    0    0    0    0    0    0    0    0    0    0    0    0    0    0    0    0    0    0    0    0    0    0    0    0    0    0    0    0    0    0    0    0    0    0    0    0    0    0    0    0    0    0    0    0    0    0    0    0    0 
